p cnf 2193 2132
c ind 1249 1250 1251 1252 1253 1254 1255 1256 1257 1258 0
c ind 1259 1092 1260 1261 1262 1221 1222 900 901 1263 0
c ind 902 1264 903 1071 1072 1265 1073 1266 1074 1075 0
c ind 1076 1077 1267 1078 1079 1080 1081 1082 1083 1268 0
c ind 1084 1269 1085 1270 1271 1086 1087 1088 1089 1090 0
c ind 1091 879 880 1272 881 1273 882 883 1274 1275 0
c ind 884 885 886 887 888 1276 1093 889 890 891 0
c ind 892 1277 893 1278 894 895 1279 1280 896 897 0
c ind 898 1281 1282 899 1050 1051 1283 1052 1053 1054 0
c ind 1055 1056 1057 1058 1284 1059 1060 1061 1062 1063 0
c ind 1064 904 1065 905 1066 1067 906 1068 907 1069 0
c ind 1070 1285 1286 1287 1288 1289 1290 1291 1292 1293 0
c ind 1094 1294 1295 1296 1297 1298 1299 1300 1301 1302 0
c ind 1303 1304 1305 1096 1097 1098 1099 1100 1101 1102 0
c ind 1103 1104 1105 1106 1107 1108 1109 1110 1111 1112 0
c ind 1113 1114 1115 1116 1117 1118 1119 1120 1121 1122 0
c ind 1123 1095 1124 1125 1126 1127 1128 1129 1130 1131 0
c ind 1132 1133 1134 1135 1136 1178 1179 1180 1181 1182 0
c ind 1183 1184 1185 1186 1187 1188 1189 1190 1191 1192 0
c ind 1193 1194 1195 1196 1197 1198 1199 1200 1201 1202 0
c ind 1203 1204 1205 1206 1207 1208 1209 1210 1211 1212 0
c ind 1213 1214 1215 1216 1217 1218 1137 1138 1139 1140 0
c ind 1141 1142 1143 1144 1145 1146 1147 1148 1149 1150 0
c ind 1151 1152 1153 1219 1154 1155 1156 1157 1158 1159 0
c ind 1160 1161 1162 1163 1164 1165 1166 1167 1168 1169 0
c ind 1170 1171 1172 1173 1174 1175 1176 1177 830 831 0
c ind 832 833 834 835 836 837 838 839 840 841 0
c ind 842 843 844 1220 845 846 847 848 849 850 0
c ind 851 852 853 854 855 856 857 858 859 860 0
c ind 861 862 863 864 865 866 867 868 869 870 0
c ind 871 872 873 874 875 876 877 878 1223 1224 0
c ind 1225 1226 1227 1228 1229 1230 1231 1232 1233 1234 0
c ind 1235 1236 1237 1238 1239 1240 1241 1242 1243 1244 0
c ind 1245 1246 1247 1248 0
556 -557 582 0
556 -557 -666 1023 0
556 -557 666 -1023 0
-556 557 0
-582 -666 -556 -1023 0
-582 666 -556 1023 0
557 -558 -572 -581 0
-557 558 0
-557 572 0
-557 581 0
558 -559 568 0
-558 559 0
-558 -568 0
559 560 564 -1054 -1296 0
-559 1296 0
-559 -564 0
-559 1054 0
-559 -560 0
561 1297 560 1298 1299 0
-560 -561 0
-560 -1299 0
-560 -1297 0
-560 -1298 0
561 562 -1302 0
561 562 563 -1303 0
-561 -562 0
-561 -563 1302 0
-561 1302 1303 0
562 1300 -1301 0
-562 -1300 0
-562 1301 0
563 1098 1099 0
563 1098 1106 1107 0
-563 -1098 0
-563 -1099 -1106 0
-563 -1099 -1107 0
565 1055 564 1056 1057 0
-564 -565 0
-564 -1057 0
-564 -1055 0
-564 -1056 0
565 566 -1060 0
565 566 567 -1061 0
-565 -566 0
-565 -567 1060 0
-565 1060 1061 0
566 1058 -1059 0
-566 -1058 0
-566 1059 0
567 1066 1067 0
567 1066 1288 1289 0
-567 -1066 0
-567 -1067 -1288 0
-567 -1067 -1289 0
-569 -1091 568 0
-571 -1091 568 0
-570 -1091 568 0
-568 1091 0
-568 569 570 571 0
569 -884 885 886 0
-569 884 0
-569 -886 0
-569 -885 0
570 884 887 888 0
-570 -884 0
-570 -888 0
-570 -887 0
571 -879 880 881 0
-571 879 0
-571 -881 0
-571 -880 0
572 -575 1162 0
572 -575 1155 0
572 573 -575 0
-572 575 0
-573 -1155 -572 -1162 0
573 -574 -1163 1164 0
-573 1163 0
-573 -1164 0
-573 574 0
574 1166 -1167 -1168 1169 0
-574 -1166 0
-574 -1169 0
-574 1168 0
-574 1167 0
575 576 -579 580 0
575 576 -579 1092 0
-575 579 0
-575 -576 0
-580 -1092 -575 0
-577 -578 576 -1144 0
-577 -578 576 -1145 0
-576 578 0
-576 577 0
-576 1144 1145 0
577 1147 1148 1149 1150 0
-577 -1150 0
-577 -1149 0
-577 -1147 0
-577 -1148 0
578 -1141 -1142 -1143 1146 0
-578 1143 0
-578 -1146 0
-578 1141 0
-578 1142 0
579 -843 -872 0
-579 843 0
-579 872 0
580 1195 1196 1197 0
-580 -1195 0
-580 -1197 0
-580 -1196 0
581 -1095 -1219 0
581 -1094 1220 0
581 -1094 -1219 0
581 -1095 1220 0
1219 -1220 -581 0
1094 1095 -581 0
582 -583 658 1037 0
582 -583 -658 -1037 0
-582 583 0
-582 658 -1037 0
-582 -658 1037 0
583 -584 647 1028 0
583 -584 -647 -1028 0
-583 584 0
-583 647 -1028 0
-583 -647 1028 0
584 -585 -615 -638 -1045 0
584 -585 -615 638 1045 0
-584 585 0
-584 -638 1045 0
-584 615 0
-584 638 -1045 0
585 -613 -605 -913 0
585 586 -605 -613 0
-585 613 0
-585 605 0
-585 -586 913 0
586 -587 -579 0
586 603 -579 0
579 -586 0
-586 587 -603 0
587 -588 -602 -1257 0
587 588 -589 -602 0
-587 602 0
-587 -588 1257 0
-587 588 589 0
588 838 -840 0
-588 -838 0
-588 840 0
589 -590 -1256 0
589 590 -591 0
-589 -590 1256 0
-589 590 591 0
590 1158 -1160 0
-590 -1158 0
-590 1160 0
591 597 -598 0
591 -592 594 -598 0
-591 598 0
-591 -594 -597 0
-591 592 -597 0
592 593 -1195 0
592 593 -1196 0
592 593 -1197 0
-592 -593 0
-592 1195 1196 1197 0
593 1203 -1205 0
-593 -1203 0
-593 1205 0
594 595 596 0
594 1220 1254 0
594 596 1254 0
594 595 1220 0
-594 -595 -1254 0
-594 -596 -1220 0
595 1182 -1184 0
-595 -1182 0
-595 1184 0
595 596 -558 0
558 -596 0
-595 -596 0
593 597 -1092 0
597 -1092 1255 0
-597 1092 0
-593 -597 -1255 0
598 601 576 0
598 -599 576 -1220 0
-576 -598 0
-598 -601 1220 0
-598 599 -601 0
599 600 -558 0
558 -599 0
-599 -600 0
-595 600 -1216 0
-600 1216 0
595 -600 0
600 601 1092 0
601 1092 1254 0
-601 -1092 0
-600 -601 -1254 0
602 -1155 1162 0
-602 1155 0
-602 -1162 0
603 604 -1155 0
589 591 603 0
591 603 604 0
589 603 -1155 0
-591 -603 1155 0
-589 -603 -604 0
573 604 -1155 -1162 0
-604 1155 0
-604 1162 0
-573 -604 0
605 606 -572 -610 0
605 -606 -572 -608 0
572 -605 0
-606 608 -605 0
606 610 -605 0
606 607 1119 0
606 -1092 1119 0
606 1119 -1137 0
-606 -1119 0
-606 -607 1092 1137 0
607 1138 1216 1217 1218 0
-607 -1218 0
-607 -1217 0
-607 -1138 0
-607 -1216 0
608 -1253 -1283 0
608 609 -1283 0
-608 1283 0
-608 -609 1253 0
609 -1245 -559 1247 0
-609 1245 0
-609 -1247 0
559 -609 0
610 612 -559 -1251 0
610 611 -559 612 0
559 -610 0
-610 -612 0
-610 -611 1251 0
611 -1245 1247 0
-611 1245 0
-611 -1247 0
-568 612 1245 0
612 903 1245 1282 0
-612 -1245 0
-612 -903 568 0
-612 -1282 568 0
613 -614 1008 0
613 614 -1008 0
-613 -614 -1008 0
-613 614 1008 0
-609 614 -572 0
572 -614 0
609 -614 0
-586 615 -616 0
615 913 -616 0
-615 616 0
586 -615 -913 0
616 617 -625 -633 0
616 617 631 -633 0
-616 -617 0
-616 633 0
625 -631 -616 0
619 1155 617 0
590 618 617 619 0
-617 -619 0
-617 -618 -1155 0
-590 -617 -1155 0
-588 618 1162 -1275 0
588 -618 0
-618 1275 0
-618 -1162 0
619 620 576 624 0
619 620 576 -623 0
-576 -619 0
-619 -620 0
-619 623 -624 0
620 -622 1092 -1216 0
620 621 1092 1216 0
-620 -1092 0
-620 622 -1216 0
-620 -621 1216 0
621 -1219 -558 0
-621 1219 0
558 -621 0
-595 622 1272 0
595 621 622 0
-595 -622 -1272 0
595 -621 -622 0
-592 622 623 0
592 -623 0
-622 -623 0
593 624 -1092 0
624 -1092 1273 0
-624 1092 0
-593 -624 -1273 0
625 628 -629 1092 0
625 626 -629 -1092 0
-625 629 0
-625 -628 1092 0
-625 -626 -1092 0
626 627 1259 0
593 626 627 0
-626 -627 0
-593 -626 -1259 0
-592 -596 627 0
-592 -595 627 -1258 0
592 -627 0
595 596 -627 0
596 -627 1258 0
599 628 1258 0
599 600 628 0
-599 -628 0
-600 -628 -1258 0
629 1155 576 0
590 629 576 630 0
-576 -629 0
-629 -630 -1155 0
-590 -629 -1155 0
602 604 630 0
-588 604 630 1261 0
-604 -630 0
-602 -630 -1261 0
588 -602 -630 0
590 631 632 0
-630 631 632 0
631 632 1260 0
-631 -632 0
-590 630 -631 -1260 0
-588 -602 632 -1261 0
-632 1261 0
588 -632 0
602 -632 0
633 1155 -579 0
-618 633 -579 0
633 -634 -579 0
579 -633 0
618 634 -633 -1155 0
634 -635 -1274 0
590 634 -635 0
-634 635 0
-590 -634 1274 0
635 636 637 0
574 635 636 -1155 0
-635 -636 0
-635 -637 1155 0
-574 -635 -637 0
-588 636 1162 0
-636 -1162 0
588 -636 0
637 -1162 -1163 1164 0
-637 1162 0
-637 1163 0
-637 -1164 0
638 -639 -579 0
638 646 -579 0
579 -638 0
-638 639 -646 0
588 -602 639 -640 0
-588 -602 639 -907 0
602 -639 0
588 -639 640 0
-588 -639 907 0
-590 640 -906 0
590 640 -641 0
-590 -640 906 0
590 -640 641 0
641 643 -644 0
-592 641 642 -644 0
-641 644 0
-641 -642 -643 0
592 -641 -643 0
595 642 1284 0
596 642 904 0
595 596 642 0
642 904 1284 0
-595 -642 -904 0
-596 -642 -1284 0
643 905 -1092 0
593 643 -1092 0
-643 1092 0
-593 -643 -905 0
644 645 576 0
-599 644 576 -1284 0
-576 -644 0
-644 -645 1284 0
599 -644 -645 0
600 645 1092 0
645 904 1092 0
-645 -1092 0
-600 -645 -904 0
640 646 -1155 0
604 641 646 0
640 641 646 0
604 646 -1155 0
-604 -640 -646 0
-641 -646 1155 0
647 -648 -579 0
647 -656 -579 0
647 -654 -579 0
579 -647 0
-647 648 654 656 0
648 -649 -652 653 0
648 651 -652 653 0
-648 652 0
-648 -653 0
-648 649 -651 0
-592 595 649 -650 0
-592 -595 649 -1268 0
592 -649 0
595 -649 650 0
-595 -649 1268 0
650 -1267 -558 0
-650 1267 0
558 -650 0
593 651 -1092 0
651 -1092 1269 0
-651 1092 0
-593 -651 -1269 0
652 1155 576 0
590 -635 576 652 0
-576 -652 0
635 -652 -1155 0
-590 -652 -1155 0
600 650 653 1092 0
-600 653 1092 1268 0
-653 -1092 0
-600 -653 -1268 0
600 -650 -653 0
654 -655 -1271 0
-654 1271 0
-654 655 0
-588 -602 655 0
588 -655 0
602 -655 0
-590 656 -657 -1270 0
-656 1270 0
590 -656 0
-656 657 0
-635 657 -1155 0
-657 1155 0
635 -657 0
658 664 -579 0
658 659 -579 -662 0
579 -658 0
-658 -659 -664 0
-658 662 -664 0
659 660 -1092 1278 0
593 659 660 -1092 0
-659 1092 0
-659 -660 0
-593 -659 -1278 0
-592 660 -661 0
-592 -595 660 -1277 0
592 -660 0
595 -660 661 0
-660 661 1277 0
-596 661 -1276 0
-661 1276 0
596 -661 0
-652 662 663 0
-599 -652 662 -1276 0
652 -662 0
-662 -663 1276 0
599 -662 -663 0
600 663 1092 0
663 1092 1277 0
-663 -1092 0
-600 -663 -1277 0
590 664 665 0
657 664 665 0
664 665 1279 0
-664 -665 0
-590 -657 -664 -1279 0
-655 665 -1280 0
-665 1280 0
655 -665 0
666 -667 -579 0
666 674 -579 0
579 -666 0
-666 667 -674 0
588 -602 667 -668 0
-588 -602 667 -1266 0
602 -667 0
588 -667 668 0
-588 -667 1266 0
-590 668 -1265 0
590 668 -669 0
-590 -668 1265 0
590 -668 669 0
669 671 -672 0
-592 669 670 -672 0
-669 672 0
-669 -670 -671 0
592 -669 -671 0
595 596 670 0
670 1262 1263 0
596 670 1263 0
595 670 1262 0
-595 -670 -1263 0
-596 -670 -1262 0
593 671 -1092 0
671 -1092 1264 0
-671 1092 0
-593 -671 -1264 0
672 673 576 0
-599 672 576 -1262 0
-576 -672 0
-672 -673 1262 0
599 -672 -673 0
600 673 1092 0
673 1092 1263 0
-673 -1092 0
-600 -673 -1263 0
668 674 -1155 0
604 669 674 0
668 669 674 0
604 674 -1155 0
-604 -668 -674 0
-669 -674 1155 0
681 -557 675 0
676 -557 675 0
557 -675 0
-675 -676 -681 0
666 676 -677 -678 1633 0
-666 676 -677 -678 -1633 0
-676 678 0
666 -1633 -676 0
-676 677 0
-666 1633 -676 0
677 -616 -605 0
605 -677 0
616 -677 0
678 -679 -680 1638 0
-647 678 -679 -680 0
-678 680 0
-678 679 0
647 -1638 -678 0
-614 679 1618 0
614 679 -1618 0
-614 -1618 -679 0
614 1618 -679 0
658 680 -1638 1647 0
647 -658 680 -1647 0
-658 680 -1638 -1647 0
647 658 680 1647 0
-658 1647 -680 0
658 -1647 -680 0
-647 1638 -680 0
-586 638 681 -1523 1655 0
586 -638 681 1523 -1655 0
586 638 681 1523 1655 0
-586 -638 681 -1523 -1655 0
586 -1523 -681 0
-586 1523 -681 0
-638 1655 -681 0
638 -1655 -681 0
-666 682 -557 0
582 682 -557 0
557 -682 0
-582 666 -682 0
-658 683 -557 0
583 683 -557 0
557 -683 0
-583 658 -683 0
-647 684 -557 0
584 684 -557 0
557 -684 0
-584 647 -684 0
615 685 -557 0
585 685 -557 0
-638 685 -557 0
557 -685 0
-585 -615 638 -685 0
-586 686 -557 0
686 687 -557 0
557 -686 0
586 -686 -687 0
-613 687 -677 0
613 -687 0
677 -687 0
677 688 -557 0
614 688 -557 0
557 -688 0
-614 -688 -677 0
677 689 -557 0
557 -689 0
-677 -689 0
666 690 -557 0
582 690 -557 0
557 -690 0
-582 -666 -690 0
658 691 -557 0
583 691 -557 0
557 -691 0
-583 -658 -691 0
647 692 -557 0
584 692 -557 0
557 -692 0
-584 -647 -692 0
638 693 -557 0
585 693 -557 0
615 693 -557 0
557 -693 0
-585 -615 -638 -693 0
687 694 -557 0
586 694 -557 0
557 -694 0
-586 -687 -694 0
-614 695 -557 0
677 695 -557 0
557 -695 0
614 -695 -677 0
1 556 0
-1 -556 0
2 556 0
-2 -556 0
3 675 0
-3 -675 0
100 -682 0
-100 682 0
101 -683 0
-101 683 0
102 -684 0
-102 684 0
103 -685 0
-103 685 0
105 -686 0
-105 686 0
115 -688 0
-115 688 0
181 -689 0
-181 689 0
376 -690 0
-376 690 0
377 -691 0
-377 691 0
378 -692 0
-378 692 0
379 -693 0
-379 693 0
381 -694 0
-381 694 0
391 -695 0
-391 695 0
457 -689 0
-457 689 0
-100 -376 2013 0
100 -2013 0
376 -2013 0
100 -1023 0
-100 1023 0
-101 -377 2014 0
101 -2014 0
377 -2014 0
101 -1037 0
-101 1037 0
-102 -378 2015 0
102 -2015 0
378 -2015 0
102 -1028 0
-102 1028 0
-103 -379 2016 0
103 -2016 0
379 -2016 0
103 -1045 0
-103 1045 0
-105 -381 2018 0
105 -2018 0
381 -2018 0
105 -913 0
-105 913 0
-115 -391 2028 0
115 -2028 0
391 -2028 0
115 -1008 0
-115 1008 0
-181 -457 2094 0
181 -2094 0
457 -2094 0
181 -727 0
-181 727 0
-1 0
-2 0
3 0
4 0
5 0
6 0
7 0
8 0
9 0
10 0
11 0
12 0
13 0
14 0
15 0
16 0
17 0
18 0
19 0
20 0
21 0
22 0
23 0
24 0
25 0
26 0
27 0
28 0
29 0
30 0
31 0
32 0
33 0
34 0
35 0
36 0
37 0
38 0
39 0
40 0
41 0
42 0
43 0
44 0
45 0
46 0
47 0
48 0
49 0
50 0
51 0
52 0
53 0
54 0
55 0
56 0
57 0
58 0
59 0
60 0
61 0
62 0
63 0
64 0
65 0
66 0
67 0
68 0
69 0
70 0
71 0
72 0
73 0
74 0
75 0
76 0
77 0
78 0
79 0
80 0
81 0
82 0
83 0
84 0
85 0
86 0
87 0
88 0
89 0
90 0
91 0
92 0
93 0
94 0
95 0
96 0
97 0
98 0
99 0
104 0
106 0
107 0
108 0
109 0
110 0
111 0
112 0
113 0
114 0
116 0
117 0
118 0
119 0
120 0
121 0
122 0
123 0
124 0
125 0
126 0
-127 0
128 0
129 0
130 0
131 0
132 0
133 0
134 0
135 0
136 0
137 0
138 0
139 0
140 0
141 0
142 0
143 0
144 0
145 0
146 0
147 0
148 0
149 0
150 0
151 0
152 0
153 0
154 0
155 0
156 0
157 0
158 0
159 0
160 0
161 0
162 0
163 0
164 0
165 0
166 0
167 0
168 0
169 0
170 0
171 0
172 0
173 0
174 0
175 0
176 0
177 0
178 0
179 0
180 0
-181 0
182 0
183 0
184 0
185 0
186 0
187 0
188 0
189 0
-190 0
191 0
192 0
193 0
194 0
195 0
196 0
197 0
198 0
199 0
200 0
201 0
202 0
203 0
204 0
205 0
206 0
207 0
208 0
209 0
210 0
211 0
212 0
213 0
214 0
215 0
216 0
217 0
218 0
-219 0
220 0
221 0
222 0
223 0
224 0
225 0
226 0
227 0
228 0
229 0
230 0
231 0
232 0
233 0
234 0
235 0
236 0
237 0
238 0
239 0
240 0
241 0
242 0
243 0
244 0
245 0
246 0
247 0
248 0
249 0
250 0
251 0
252 0
253 0
254 0
255 0
256 0
257 0
258 0
259 0
260 0
261 0
262 0
263 0
264 0
265 0
266 0
267 0
268 0
269 0
270 0
271 0
272 0
273 0
274 0
275 0
276 0
277 0
278 0
279 0
-280 0
-281 0
-282 0
-283 0
-284 0
-285 0
-286 0
-287 0
-288 0
-289 0
-290 0
-291 0
-292 0
-293 0
-294 0
-295 0
-296 0
-297 0
-298 0
-299 0
-300 0
-301 0
-302 0
-303 0
-304 0
-305 0
-306 0
-307 0
-308 0
-309 0
-310 0
-311 0
-312 0
-313 0
-314 0
-315 0
-316 0
-317 0
-318 0
-319 0
-320 0
-321 0
-322 0
-323 0
-324 0
-325 0
-326 0
-327 0
-328 0
-329 0
-330 0
-331 0
-332 0
-333 0
-334 0
-335 0
-336 0
-337 0
-338 0
-339 0
-340 0
-341 0
-342 0
-343 0
-344 0
-345 0
-346 0
-347 0
-348 0
-349 0
-350 0
-351 0
-352 0
-353 0
-354 0
-355 0
-356 0
-357 0
-358 0
-359 0
-360 0
-361 0
-362 0
-363 0
-364 0
-365 0
-366 0
-367 0
-368 0
-369 0
-370 0
-371 0
-372 0
-373 0
-374 0
-375 0
-380 0
-382 0
-383 0
-384 0
-385 0
-386 0
-387 0
-388 0
-389 0
-390 0
-392 0
-393 0
-394 0
-395 0
-396 0
-397 0
-398 0
-399 0
-400 0
-401 0
-402 0
403 0
-404 0
-405 0
-406 0
-407 0
-408 0
-409 0
-410 0
-411 0
-412 0
-413 0
-414 0
-415 0
-416 0
-417 0
-418 0
-419 0
-420 0
-421 0
-422 0
-423 0
-424 0
-425 0
-426 0
-427 0
-428 0
-429 0
-430 0
-431 0
-432 0
-433 0
-434 0
-435 0
-436 0
-437 0
-438 0
-439 0
-440 0
-441 0
-442 0
-443 0
-444 0
-445 0
-446 0
-447 0
-448 0
-449 0
-450 0
-451 0
-452 0
-453 0
-454 0
-455 0
-456 0
-457 0
-458 0
-459 0
-460 0
-461 0
-462 0
-463 0
-464 0
-465 0
466 0
-467 0
-468 0
-469 0
-470 0
-471 0
-472 0
-473 0
-474 0
-475 0
-476 0
-477 0
-478 0
-479 0
-480 0
-481 0
-482 0
-483 0
-484 0
-485 0
-486 0
-487 0
-488 0
-489 0
-490 0
-491 0
-492 0
-493 0
-494 0
495 0
-496 0
-497 0
-498 0
-499 0
-500 0
-501 0
-502 0
-503 0
-504 0
-505 0
-506 0
-507 0
-508 0
-509 0
-510 0
-511 0
-512 0
-513 0
-514 0
-515 0
-516 0
-517 0
-518 0
-519 0
-520 0
-521 0
-522 0
-523 0
-524 0
-525 0
-526 0
-527 0
-528 0
-529 0
-530 0
-531 0
-532 0
-533 0
-534 0
-535 0
-536 0
-537 0
-538 0
-539 0
-540 0
-541 0
-542 0
-543 0
-544 0
-545 0
-546 0
-547 0
-548 0
-549 0
-550 0
-551 0
-552 0
-553 0
-554 0
-555 0
556 0
557 0
558 0
559 0
-560 0
-564 0
-568 0
572 0
575 0
-576 0
579 0
581 0
605 0
616 0
-617 0
633 0
-675 0
676 0
677 0
678 0
679 0
680 0
681 0
-689 0
696 0
697 0
698 0
-699 0
700 0
701 0
702 0
703 0
704 0
705 0
706 0
707 0
708 0
709 0
710 0
711 0
712 0
713 0
714 0
715 0
716 0
717 0
718 0
719 0
720 0
721 0
722 0
723 0
724 0
725 0
726 0
-727 0
728 0
729 0
730 0
731 0
732 0
733 0
734 0
735 0
736 0
737 0
738 0
739 0
740 0
741 0
742 0
743 0
744 0
745 0
746 0
747 0
748 0
749 0
750 0
751 0
752 0
753 0
754 0
755 0
756 0
757 0
758 0
759 0
760 0
761 0
762 0
763 0
764 0
765 0
766 0
767 0
768 0
769 0
770 0
771 0
772 0
773 0
774 0
775 0
776 0
777 0
778 0
779 0
780 0
781 0
782 0
783 0
784 0
785 0
786 0
787 0
788 0
789 0
790 0
791 0
792 0
793 0
794 0
795 0
796 0
797 0
798 0
799 0
800 0
801 0
802 0
803 0
804 0
805 0
806 0
807 0
808 0
809 0
810 0
811 0
812 0
813 0
814 0
815 0
816 0
817 0
818 0
819 0
820 0
821 0
822 0
823 0
824 0
825 0
826 0
827 0
828 0
829 0
843 0
872 0
-908 0
909 0
910 0
911 0
912 0
914 0
915 0
916 0
917 0
918 0
919 0
920 0
921 0
922 0
923 0
924 0
925 0
926 0
927 0
928 0
929 0
930 0
931 0
932 0
933 0
934 0
935 0
936 0
937 0
938 0
939 0
940 0
941 0
942 0
943 0
944 0
945 0
946 0
947 0
948 0
949 0
950 0
951 0
952 0
953 0
954 0
955 0
956 0
957 0
958 0
959 0
960 0
961 0
962 0
963 0
964 0
965 0
966 0
967 0
968 0
969 0
970 0
-971 0
972 0
973 0
974 0
975 0
976 0
977 0
978 0
979 0
980 0
981 0
982 0
983 0
984 0
985 0
986 0
987 0
988 0
989 0
990 0
991 0
992 0
993 0
994 0
995 0
996 0
997 0
998 0
999 0
1000 0
1001 0
1002 0
1003 0
1004 0
1005 0
1006 0
1007 0
1009 0
1010 0
1011 0
1012 0
1013 0
1014 0
1015 0
1016 0
1017 0
1018 0
1019 0
1020 0
1021 0
1022 0
1024 0
1025 0
1026 0
1027 0
1029 0
1030 0
1031 0
1032 0
1033 0
1034 0
1035 0
1036 0
1038 0
1039 0
1040 0
1041 0
1042 0
1043 0
1044 0
1046 0
1047 0
1048 0
1049 0
1054 0
1296 0
1916 0
-1917 0
-1918 0
-1919 0
-1920 0
-1921 0
-1922 0
-1923 0
-1924 0
-1925 0
-1926 0
-1927 0
-1928 0
-1929 0
-1930 0
-1931 0
-1932 0
-1933 0
-1934 0
-1935 0
-1936 0
-1937 0
-1938 0
-1939 0
-1940 0
-1941 0
-1942 0
-1943 0
-1944 0
-1945 0
-1946 0
-1947 0
-1948 0
-1949 0
-1950 0
-1951 0
-1952 0
-1953 0
-1954 0
-1955 0
-1956 0
-1957 0
-1958 0
-1959 0
-1960 0
-1961 0
-1962 0
-1963 0
-1964 0
-1965 0
-1966 0
-1967 0
-1968 0
-1969 0
-1970 0
-1971 0
-1972 0
-1973 0
-1974 0
-1975 0
-1976 0
-1977 0
-1978 0
-1979 0
-1980 0
-1981 0
-1982 0
-1983 0
-1984 0
-1985 0
-1986 0
-1987 0
-1988 0
-1989 0
-1990 0
-1991 0
-1992 0
-1993 0
-1994 0
-1995 0
-1996 0
-1997 0
-1998 0
-1999 0
-2000 0
-2001 0
-2002 0
-2003 0
-2004 0
-2005 0
-2006 0
-2007 0
-2008 0
-2009 0
-2010 0
-2011 0
-2012 0
-2017 0
-2019 0
-2020 0
-2021 0
-2022 0
-2023 0
-2024 0
-2025 0
-2026 0
-2027 0
-2029 0
-2030 0
-2031 0
-2032 0
-2033 0
-2034 0
-2035 0
-2036 0
-2037 0
-2038 0
-2039 0
-2040 0
-2041 0
-2042 0
-2043 0
-2044 0
-2045 0
-2046 0
-2047 0
-2048 0
-2049 0
-2050 0
-2051 0
-2052 0
-2053 0
-2054 0
-2055 0
-2056 0
-2057 0
-2058 0
-2059 0
-2060 0
-2061 0
-2062 0
-2063 0
-2064 0
-2065 0
-2066 0
-2067 0
-2068 0
-2069 0
-2070 0
-2071 0
-2072 0
-2073 0
-2074 0
-2075 0
-2076 0
-2077 0
-2078 0
-2079 0
-2080 0
-2081 0
-2082 0
-2083 0
-2084 0
-2085 0
-2086 0
-2087 0
-2088 0
-2089 0
-2090 0
-2091 0
-2092 0
-2093 0
-2094 0
-2095 0
-2096 0
-2097 0
-2098 0
-2099 0
-2100 0
-2101 0
-2102 0
-2103 0
-2104 0
-2105 0
-2106 0
-2107 0
-2108 0
-2109 0
-2110 0
-2111 0
-2112 0
-2113 0
-2114 0
-2115 0
-2116 0
-2117 0
-2118 0
-2119 0
-2120 0
-2121 0
-2122 0
-2123 0
-2124 0
-2125 0
-2126 0
-2127 0
-2128 0
-2129 0
-2130 0
-2131 0
-2132 0
-2133 0
-2134 0
-2135 0
-2136 0
-2137 0
-2138 0
-2139 0
-2140 0
-2141 0
-2142 0
-2143 0
-2144 0
-2145 0
-2146 0
-2147 0
-2148 0
-2149 0
-2150 0
-2151 0
-2152 0
-2153 0
-2154 0
-2155 0
-2156 0
-2157 0
-2158 0
-2159 0
-2160 0
-2161 0
-2162 0
-2163 0
-2164 0
-2165 0
-2166 0
-2167 0
-2168 0
-2169 0
-2170 0
-2171 0
-2172 0
-2173 0
-2174 0
-2175 0
-2176 0
-2177 0
-2178 0
-2179 0
-2180 0
-2181 0
-2182 0
-2183 0
-2184 0
-2185 0
-2186 0
-2187 0
-2188 0
-2189 0
-2190 0
-2191 0
-2192 0
-1859 0
-1860 0
-1861 0
-1862 0
-1863 0
-1864 0
-1865 0
-1866 0
-1867 0
-1868 0
-1869 0
-1702 0
-1870 0
-1871 0
-1872 0
-1831 0
-1832 0
-1510 0
-1511 0
-1873 0
-1512 0
-1874 0
-1513 0
-1681 0
-1682 0
-1875 0
-1683 0
-1876 0
-1684 0
-1685 0
-1686 0
-1687 0
-1877 0
-1688 0
-1689 0
-1690 0
-1691 0
-1692 0
-1693 0
-1878 0
-1694 0
-1879 0
-1695 0
-1880 0
-1881 0
-1696 0
-1697 0
-1698 0
-1699 0
-1700 0
-1701 0
-1489 0
-1490 0
-1882 0
-1491 0
-1883 0
-1492 0
-1493 0
-1884 0
-1885 0
-1494 0
-1495 0
-1496 0
-1497 0
-1498 0
-1886 0
-1703 0
-1499 0
-1500 0
-1501 0
-1502 0
-1887 0
-1503 0
-1888 0
-1504 0
-1505 0
-1889 0
-1890 0
-1506 0
-1507 0
-1508 0
-1891 0
-1892 0
-1509 0
-1660 0
-1661 0
-1893 0
-1662 0
-1663 0
-1664 0
-1665 0
-1666 0
-1667 0
-1668 0
-1894 0
-1669 0
-1670 0
-1671 0
-1672 0
-1673 0
-1674 0
-1514 0
-1675 0
-1515 0
-1676 0
-1677 0
-1516 0
-1678 0
-1517 0
-1679 0
-1680 0
-1895 0
-1896 0
-1897 0
-1898 0
-1899 0
-1900 0
-1901 0
-1902 0
-1903 0
-1704 0
-1904 0
-1905 0
-1906 0
-1907 0
-1908 0
-1909 0
-1910 0
-1911 0
-1912 0
-1913 0
-1914 0
-1915 0
-1706 0
-1707 0
-1708 0
-1709 0
-1710 0
-1711 0
-1712 0
-1713 0
-1714 0
-1715 0
-1716 0
-1717 0
-1718 0
-1719 0
-1720 0
-1721 0
-1722 0
-1723 0
-1724 0
-1725 0
-1726 0
-1727 0
-1728 0
-1729 0
-1730 0
-1731 0
-1732 0
-1733 0
-1705 0
-1734 0
-1735 0
-1736 0
-1737 0
-1738 0
-1739 0
-1740 0
-1741 0
-1742 0
-1743 0
-1744 0
-1745 0
-1746 0
-1788 0
-1789 0
-1790 0
-1791 0
-1792 0
-1793 0
-1794 0
-1795 0
-1796 0
-1797 0
-1798 0
-1799 0
-1800 0
-1801 0
-1802 0
-1803 0
-1804 0
-1805 0
-1806 0
-1807 0
-1808 0
-1809 0
-1810 0
-1811 0
-1812 0
-1813 0
-1814 0
-1815 0
-1816 0
-1817 0
-1818 0
-1819 0
-1820 0
-1821 0
-1822 0
-1823 0
-1824 0
-1825 0
-1826 0
-1827 0
-1828 0
-1747 0
-1748 0
-1749 0
-1750 0
-1751 0
-1752 0
-1753 0
-1754 0
-1755 0
-1756 0
-1757 0
-1758 0
-1759 0
-1760 0
-1761 0
-1762 0
-1763 0
-1829 0
-1764 0
-1765 0
-1766 0
-1767 0
-1768 0
-1769 0
-1770 0
-1771 0
-1772 0
-1773 0
-1774 0
-1775 0
-1776 0
-1777 0
-1778 0
-1779 0
-1780 0
-1781 0
-1782 0
-1783 0
-1784 0
-1785 0
-1786 0
-1787 0
-1440 0
-1441 0
-1442 0
-1443 0
-1444 0
-1445 0
-1446 0
-1447 0
-1448 0
-1449 0
-1450 0
-1451 0
-1452 0
-1453 0
-1454 0
-1830 0
-1455 0
-1456 0
-1457 0
-1458 0
-1459 0
-1460 0
-1461 0
-1462 0
-1463 0
-1464 0
-1465 0
-1466 0
-1467 0
-1468 0
-1469 0
-1470 0
-1471 0
-1472 0
-1473 0
-1474 0
-1475 0
-1476 0
-1477 0
-1478 0
-1479 0
-1480 0
-1481 0
-1482 0
-1483 0
-1484 0
-1485 0
-1486 0
-1487 0
-1488 0
-1833 0
-1834 0
-1835 0
-1836 0
-1837 0
-1838 0
-1839 0
-1840 0
-1841 0
-1842 0
-1843 0
-1844 0
-1845 0
-1846 0
-1847 0
-1848 0
-1849 0
-1850 0
-1851 0
-1852 0
-1853 0
-1854 0
-1855 0
-1856 0
-1857 0
-1858 0

